%nprocshared=14
%mem=80GB
%chk=P3.chk
# ub3lyp/6-311g(d,p) geom=connectivity temperature=823.15

Title Card Required

0 1
 C                 -1.60570900    0.05800100   -0.00015900
 C                 -0.60983600    1.04360400   -0.00006100
 C                  0.75010000    0.74459400    0.00006800
 C                  1.12299300   -0.60946100    0.00009600
 C                  0.15538700   -1.60917400   -0.00001200
 C                 -1.19831100   -1.27446600   -0.00013500
 H                  0.45772200   -2.65304400   -0.00000200
 O                  2.46725600   -0.88264300    0.00023800
 H                 -1.94023500   -2.06620700   -0.00021900
 H                  2.59308500   -1.83679400    0.00018700
 C                 -3.06770800    0.43797700   -0.00027500
 H                 -3.32682700    1.03395700    0.88073200
 H                 -3.32659400    1.03431800   -0.88110400
 H                 -3.70649500   -0.44770200   -0.00053800
 H                 -0.90403900    2.08992800   -0.00010200
 C                  1.80963100    1.81534700    0.00020500
 H                  2.45813400    1.72955800    0.87734300
 H                  2.45892300    1.72900800   -0.87628100
 H                  1.35899500    2.80959300   -0.00028300

 1 2 1.5 6 1.5 11 1.0
 2 3 1.5 15 1.0
 3 4 1.5 16 1.0
 4 5 1.5 8 1.0
 5 6 1.5 7 1.0
 6 9 1.0
 7
 8 10 1.0
 9
 10
 11 12 1.0 13 1.0 14 1.0
 12
 13
 14
 15
 16 17 1.0 18 1.0 19 1.0
 17
 18
 19

