%nprocs=   4
#P B3LYP/6-31G* SCF=conver=7 out=wfn
 
Generated by Multiwfn (http://sobereva.com/multiwfn)
 
  1  1
C     -1.06443600   -1.38603100    0.00007900
C      0.32928300   -1.28162200    0.00006000
C      0.93259900   -0.03151300   -0.00001200
C      0.10642000    1.19240400   -0.00007500
C     -1.32721200    0.99403700   -0.00004800
C     -1.91156000   -0.25100500    0.00002900
H     -1.51085900   -2.37478500    0.00013400
H     -1.92137800    1.90179400   -0.00009600
O      0.62438200    2.32174600   -0.00013600
O      2.25215400    0.19670400   -0.00003500
H      0.92206500   -2.18679600    0.00009900
C     -3.41370600   -0.41618800    0.00009400
H     -3.86208800    0.05146600    0.88126500
H     -3.86224900    0.05219400   -0.88060300
H     -3.69958700   -1.46984700   -0.00030800
C      3.14300300   -0.91520900    0.00000900
H      3.00584800   -1.53098800   -0.89478800
H      4.14374900   -0.48898000   -0.00002600
H      3.00587300   -1.53089800    0.89487100
 
N-1.wfn
 
 
