%nprocshared=14
%mem=80GB
%chk=SR-12.chk
# ub3lyp/6-311g(d,p) geom=connectivity temperature=823.15

Title Card Required

0 2
 C                 -1.06443600   -1.38603100    0.00007900
 C                  0.32928300   -1.28162200    0.00006000
 C                  0.93259900   -0.03151300   -0.00001200
 C                  0.10642000    1.19240400   -0.00007500
 C                 -1.32721200    0.99403700   -0.00004800
 C                 -1.91156000   -0.25100500    0.00002900
 H                 -1.51085900   -2.37478500    0.00013400
 H                 -1.92137800    1.90179400   -0.00009600
 O                  0.62438200    2.32174600   -0.00013600
 O                  2.25215400    0.19670400   -0.00003500
 H                  0.92206500   -2.18679600    0.00009900
 C                 -3.41370600   -0.41618800    0.00009400
 H                 -3.86208800    0.05146600    0.88126500
 H                 -3.86224900    0.05219400   -0.88060300
 H                 -3.69958700   -1.46984700   -0.00030800
 C                  3.14300300   -0.91520900    0.00000900
 H                  3.00584800   -1.53098800   -0.89478800
 H                  4.14374900   -0.48898000   -0.00002600
 H                  3.00587300   -1.53089800    0.89487100

 1 2 1.5 6 1.5 7 1.0
 2 3 1.5 11 1.0
 3 4 1.0 10 1.5
 4 5 1.5 9 2.0
 5 6 2.0 8 1.0
 6 12 1.0
 7
 8
 9
 10 16 1.0
 11
 12 13 1.0 14 1.0 15 1.0
 13
 14
 15
 16 17 1.0 18 1.0 19 1.0
 17
 18
 19

