%nprocshared=14
%nprocs=   4
#p b3lyp/6-31g(d) out=wfn scf=conver=7

Generated by Multiwfn (http://sobereva.com/multiwfn)

1 2
 C                  0.10043691    1.07755010    0.00000184
 C                 -1.28248108    0.99604207    0.00008884
 C                 -1.93328506   -0.24648594    0.00002184
 C                 -1.15803405   -1.40251192   -0.00003216
 C                  0.24079195   -1.33650690   -0.00002016
 C                  0.87111894   -0.10162189   -0.00006416
 H                 -1.84709210    1.92205106    0.00020484
 H                 -1.63882003   -2.37439593   -0.00004616
 H                  0.81912697   -2.25133189    0.00005884
 O                  2.22859193    0.12362313   -0.00001116
 H                  1.66761990    2.12810212    0.00121284
 O                  0.71527889    2.29268111   -0.00019816
 C                 -3.44206406   -0.31078496    0.00000584
 H                 -3.86190307    0.18497503   -0.88097916
 H                 -3.79367804   -1.34442697    0.00014184
 H                 -3.86195707    0.18522803    0.88082184
 C                  3.09663195   -1.00037286    0.00003184
 H                  4.10946394   -0.60065884   -0.00032516
 H                  2.94898296   -1.61572886    0.89423484
 H                  2.94859696   -1.61609386   -0.89385216

N-1.wfn




