%nprocshared=14
%mem=80GB
%chk=17.chk
# rb3lyp/6-311g(d,p) geom=connectivity temperature=823.15

Title Card Required

0 1
 C                 -0.10043700    1.07755000   -0.00000200
 C                  1.28248100    0.99604200   -0.00008900
 C                  1.93328500   -0.24648600   -0.00002200
 C                  1.15803400   -1.40251200    0.00003200
 C                 -0.24079200   -1.33650700    0.00002000
 C                 -0.87111900   -0.10162200    0.00006400
 H                  1.84709200    1.92205100   -0.00020500
 H                  1.63882000   -2.37439600    0.00004600
 H                 -0.81912700   -2.25133200   -0.00005900
 O                 -2.22859200    0.12362300    0.00001100
 H                 -1.66762000    2.12810200   -0.00121300
 O                 -0.71527900    2.29268100    0.00019800
 C                  3.44206400   -0.31078500   -0.00000600
 H                  3.86190300    0.18497500    0.88097900
 H                  3.79367800   -1.34442700   -0.00014200
 H                  3.86195700    0.18522800   -0.88082200
 C                 -3.09663200   -1.00037300   -0.00003200
 H                 -4.10946400   -0.60065900    0.00032500
 H                 -2.94898300   -1.61572900   -0.89423500
 H                 -2.94859700   -1.61609400    0.89385200

 1 2 2.0 6 1.5 12 1.0
 2 3 1.5 7 1.0
 3 4 1.5 13 1.0
 4 5 1.5 8 1.0
 5 6 1.5 9 1.0
 6 10 1.0
 7
 8
 9
 10 17 1.0
 11 12 1.0
 12
 13 14 1.0 15 1.0 16 1.0
 14
 15
 16
 17 18 1.0 19 1.0 20 1.0
 18
 19
 20

