%nprocs=   4
#P B3LYP/6-31G* SCF=conver=7 out=wfn
 
Generated by Multiwfn (http://sobereva.com/multiwfn)
 
  0  1
C      1.13114500    1.29550500   -0.00007800
C     -0.23759000    1.57935400   -0.00004800
C     -1.15897900    0.54513000   -0.00000500
C     -0.71803300   -0.78772000    0.00001400
C      0.64304000   -1.05743800    0.00001400
C      1.58715400   -0.02188600   -0.00001800
H      1.84231200    2.11376900   -0.00013700
H     -0.58284700    2.60935200   -0.00005200
H      0.95492800   -2.09620100   -0.00000300
O     -1.61846600   -1.81053200    0.00000900
O     -2.52890300    0.70702100    0.00007500
H     -2.50225600   -1.42117300   -0.00020600
H     -2.74741600    1.64349600   -0.00109300
C      3.06335500   -0.34201200    0.00015000
H      3.34430500   -0.92640400    0.88214600
H      3.34390700   -0.92927500   -0.88004800
H      3.66546600    0.56893000   -0.00144700
 
N.wfn
 
 
