%nprocshared=14
%mem=58339MB
%chk=SR3.chk
# rb3lyp/6-311g(d,p) geom=connectivity temperature=823.15

Title Card Required

0 1
 C                  1.13114500    1.29550500   -0.00007800
 C                 -0.23759000    1.57935400   -0.00004800
 C                 -1.15897900    0.54513000   -0.00000500
 C                 -0.71803300   -0.78772000    0.00001400
 C                  0.64304000   -1.05743800    0.00001400
 C                  1.58715400   -0.02188600   -0.00001800
 H                  1.84231200    2.11376900   -0.00013700
 H                 -0.58284700    2.60935200   -0.00005200
 H                  0.95492800   -2.09620100   -0.00000300
 O                 -1.61846600   -1.81053200    0.00000900
 O                 -2.52890300    0.70702100    0.00007500
 H                 -2.50225600   -1.42117300   -0.00020600
 H                 -2.74741600    1.64349600   -0.00109300
 C                  3.06335500   -0.34201200    0.00015000
 H                  3.34430500   -0.92640400    0.88214600
 H                  3.34390700   -0.92927500   -0.88004800
 H                  3.66546600    0.56893000   -0.00144700

 1 2 1.5 6 1.5 7 1.0
 2 3 2.0 8 1.0
 3 4 1.5 11 1.0
 4 5 1.5 10 1.0
 5 6 1.5 9 1.0
 6 14 1.0
 7
 8
 9
 10 12 1.0
 11 13 1.0
 12
 13
 14 15 1.0 16 1.0 17 1.0
 15
 16
 17

