%nprocs=   4
#P B3LYP/6-31G* SCF=conver=7 out=wfn
 
Generated by Multiwfn (http://sobereva.com/multiwfn)
 
  0  1
C      1.10904606    1.24234013    0.00002805
C     -0.24322294    1.40021710   -0.00001195
C     -2.11205791   -0.23383394    0.00000405
C     -0.81886591    0.05827409   -0.00007195
C      0.28770011   -0.89499989   -0.00005795
C      1.44638710   -0.17264786   -0.00000195
H      1.83149904    2.04799115    0.00006205
H     -0.81034296    2.31823609   -0.00005895
O     -3.23903890   -0.48773396    0.00005105
H      0.17931213   -1.96918489   -0.00000695
C      2.84244210   -0.71898883    0.00002805
H      3.40083810   -0.38305682   -0.88031695
H      3.40068810   -0.38339882    0.88059806
H      2.84174513   -1.81087983   -0.00018395
 
N.wfn
 
 
