%nprocshared=14
%mem=58339MB
%chk=4.chk
# ub3lyp/6-311g(d,p) geom=connectivity temperature=823.15

Title Card Required

0 1
 C                 -1.10904600    1.24234000   -0.00002800
 C                  0.24322300    1.40021700    0.00001200
 C                  2.11205800   -0.23383400   -0.00000400
 C                  0.81886600    0.05827400    0.00007200
 C                 -0.28770000   -0.89500000    0.00005800
 C                 -1.44638700   -0.17264800    0.00000200
 H                 -1.83149900    2.04799100   -0.00006200
 H                  0.81034300    2.31823600    0.00005900
 O                  3.23903900   -0.48773400   -0.00005100
 H                 -0.17931200   -1.96918500    0.00000700
 C                 -2.84244200   -0.71898900   -0.00002800
 H                 -3.40083800   -0.38305700    0.88031700
 H                 -3.40068800   -0.38339900   -0.88059800
 H                 -2.84174500   -1.81088000    0.00018400

 1 2 2.0 6 1.0 7 1.0
 2 4 1.0 8 1.0
 3 4 2.0 9 3.0
 4 5 1.0
 5 6 2.0 10 1.0
 6 11 1.0
 7
 8
 9
 10
 11 12 1.0 13 1.0 14 1.0
 12
 13
 14

