%nprocshared=14
%nprocs=   4
#p b3lyp/6-31g(d) out=wfn scf=conver=7

Generated by Multiwfn (http://sobereva.com/multiwfn)

-1 1
 C                  0.99253290    0.82691103    0.00004682
 C                 -0.39581709    0.79980903    0.00010082
 C                 -1.08085910   -0.41355297    0.00007182
 C                 -0.35828810   -1.63547397   -0.00000518
 C                  1.00882590   -1.63909597   -0.00007318
 C                  1.78163790   -0.41131498   -0.00003118
 H                 -0.96569209    1.72266503    0.00017282
 H                 -0.90530810   -2.57360297   -0.00007118
 H                  1.57971490   -2.56001798   -0.00018918
 O                  3.02518990   -0.39539598   -0.00006118
 O                  1.70397291    1.96789403    0.00003782
 C                 -2.58556410   -0.45426397    0.00021582
 H                 -2.92126310   -1.01660296   -0.88492618
 H                 -2.92110610   -1.01575897    0.88595782
 O                 -3.11274309    0.86272503   -0.00032718
 H                 -4.07175310    0.80392003   -0.00014118
 H                  1.09923991    2.71950402    0.00004682

N+1.wfn




