%nprocshared=14
%mem=80GB
%chk=F:\2025-12\sjk\SJY\PR7\PR7.chk
# ub3lyp/6-311g(d,p) geom=connectivity temperature=823.15

Title Card Required

0 2
 C                 -0.99253300    0.82691100   -0.00004700
 C                  0.39581700    0.79980900   -0.00010100
 C                  1.08085900   -0.41355300   -0.00007200
 C                  0.35828800   -1.63547400    0.00000500
 C                 -1.00882600   -1.63909600    0.00007300
 C                 -1.78163800   -0.41131500    0.00003100
 H                  0.96569200    1.72266500   -0.00017300
 H                  0.90530800   -2.57360300    0.00007100
 H                 -1.57971500   -2.56001800    0.00018900
 O                 -3.02519000   -0.39539600    0.00006100
 O                 -1.70397300    1.96789400   -0.00003800
 C                  2.58556400   -0.45426400   -0.00021600
 H                  2.92126300   -1.01660300    0.88492600
 H                  2.92110600   -1.01575900   -0.88595800
 O                  3.11274300    0.86272500    0.00032700
 H                  4.07175300    0.80392000    0.00014100
 H                 -1.09924000    2.71950400   -0.00004700

 1 2 1.5 6 1.0 11 1.0
 2 3 1.5 7 1.0
 3 4 1.5 12 1.0
 4 5 2.0 8 1.0
 5 6 1.0 9 1.0
 6 10 2.0
 7
 8
 9
 10
 11 17 1.0
 12 13 1.0 14 1.0 15 1.0
 13
 14
 15 16 1.0
 16
 17

