%chk=F:\MULTIWFN\Multiwfn_3.8_dev_bin_Win64\N+1.chk
%nprocshared=14
%nprocs=   4
#p b3lyp/6-31g(d) out=wfn scf=conver=7

Generated by Multiwfn (http://sobereva.com/multiwfn)

-1 1
 C                  0.98339904   -0.88795010    0.00027196
 C                 -0.45478097   -0.84157109    0.00072096
 C                 -1.11022096    0.36099491    0.00053696
 C                 -0.37033095    1.58142991   -0.00014904
 C                  1.01656405    1.60385890   -0.00035004
 C                  1.69933405    0.39337189   -0.00012304
 H                 -0.99894397   -1.77584809    0.00119096
 H                 -0.91147494    2.52253791   -0.00048504
 H                  1.56899506    2.53544489   -0.00070904
 O                  3.02752805    0.31205188   -0.00038304
 H                  3.20588803   -0.65382012   -0.00028404
 O                  1.67862503   -1.92952011    0.00026096
 C                 -2.61725096    0.44433192    0.00114196
 H                 -2.93759295    1.01159593    0.88879796
 H                 -2.93799895    1.01676392   -0.88306904
 O                 -3.17344097   -0.85826707   -0.00252104
 H                 -4.13084897   -0.77759006    0.00340496

N+1.wfn




