%nprocshared=14
%mem=58371MB
%chk=F:\2025-12\sjk\SJY\PR6\PR6.chk
# ub3lyp/6-311g(d,p) geom=connectivity temperature=823.15

Title Card Required

0 2
 C                 -0.98339900    0.88795000    0.00027200
 C                  0.45478100    0.84157100    0.00072100
 C                  1.11022100   -0.36099500    0.00053700
 C                  0.37033100   -1.58143000   -0.00014900
 C                 -1.01656400   -1.60385900   -0.00035000
 C                 -1.69933400   -0.39337200   -0.00012300
 H                  0.99894400    1.77584800    0.00119100
 H                  0.91147500   -2.52253800   -0.00048500
 H                 -1.56899500   -2.53544500   -0.00070900
 O                 -3.02752800   -0.31205200   -0.00038300
 H                 -3.20588800    0.65382000   -0.00028400
 O                 -1.67862500    1.92952000    0.00026100
 C                  2.61725100   -0.44433200    0.00114200
 H                  2.93759300   -1.01159600    0.88879800
 H                  2.93799900   -1.01676400   -0.88306900
 O                  3.17344100    0.85826700   -0.00252100
 H                  4.13084900    0.77759000    0.00340500

 1 2 1.5 6 1.0 12 2.0
 2 3 2.0 7 1.0
 3 4 1.5 13 1.0
 4 5 1.5 8 1.0
 5 6 1.5 9 1.0
 6 10 1.5
 7
 8
 9
 10 11 1.0
 11
 12
 13 14 1.0 15 1.0 16 1.0
 14
 15
 16 17 1.0
 17

