%nprocs=   4
#P B3LYP/6-31G* SCF=conver=7 out=wfn
 
Generated by Multiwfn (http://sobereva.com/multiwfn)
 
 -1  1
C     -0.77642600   -0.77391700    0.00000300
C      0.57187400   -1.10038000   -0.00001100
C      1.52750000   -0.08436000   -0.00001200
C      1.10878100    1.28092700   -0.00000900
C     -0.21350400    1.63227500    0.00000700
C     -1.23450100    0.61811700    0.00000200
H      0.86524800   -2.14374500   -0.00001800
H      1.87108300    2.05331000    0.00001300
H     -0.53516400    2.66673200    0.00002400
O     -2.47056600    0.82287900   -0.00000700
H     -2.56970400   -1.17453900    0.00000500
O     -1.73811600   -1.69551100    0.00000900
C      2.99680000   -0.40404900    0.00000500
H      3.17567400   -1.47991900   -0.00005200
H      3.48961900    0.02382700   -0.87947700
H      3.48956200    0.02370900    0.87958100
 
N+1.wfn
 
 
