%nprocs=   4
#P B3LYP/6-31G* SCF=conver=7 out=wfn
 
Generated by Multiwfn (http://sobereva.com/multiwfn)
 
  1  1
C     -0.86251500    1.22763300   -0.00006800
C      0.51009700    1.19645300   -0.00005000
C      1.17054400   -0.09374100   -0.00009800
C      0.32719500   -1.28902000    0.00001400
C     -1.05570600   -1.20750500    0.00001500
C     -1.66344000    0.04854400   -0.00005100
H     -1.64502300   -2.11685500    0.00005400
O      0.97946600   -2.45224200    0.00004700
O      2.41365400   -0.25922700    0.00016700
H      1.92648100   -2.19742000   -0.00006400
C      1.36798000    2.42628800    0.00000200
H      0.76184800    3.33367700   -0.00004600
H      2.02475000    2.44026200    0.87477400
H      2.02487300    2.44024300   -0.87467600
H     -1.36883900    2.18853400   -0.00007600
C     -3.16179200    0.17960100   -0.00003200
H     -3.50567300    0.73421900    0.87950900
H     -3.50568500    0.73435500   -0.87948000
H     -3.65186300   -0.79476900   -0.00010000
 
N-1.wfn
 
 
