%nprocshared=14
%mem=80GB
%chk=SR-10.chk
# ub3lyp/6-311g(d,p) geom=connectivity temperature=823.15

Title Card Required

0 2
 C                 -0.86251500    1.22763300   -0.00006800
 C                  0.51009700    1.19645300   -0.00005000
 C                  1.17054400   -0.09374100   -0.00009800
 C                  0.32719500   -1.28902000    0.00001400
 C                 -1.05570600   -1.20750500    0.00001500
 C                 -1.66344000    0.04854400   -0.00005100
 H                 -1.64502300   -2.11685500    0.00005400
 O                  0.97946600   -2.45224200    0.00004700
 O                  2.41365400   -0.25922700    0.00016700
 H                  1.92648100   -2.19742000   -0.00006400
 C                  1.36798000    2.42628800    0.00000200
 H                  0.76184800    3.33367700   -0.00004600
 H                  2.02475000    2.44026200    0.87477400
 H                  2.02487300    2.44024300   -0.87467600
 H                 -1.36883900    2.18853400   -0.00007600
 C                 -3.16179200    0.17960100   -0.00003200
 H                 -3.50567300    0.73421900    0.87950900
 H                 -3.50568500    0.73435500   -0.87948000
 H                 -3.65186300   -0.79476900   -0.00010000

 1 2 2.0 6 1.5 15 1.0
 2 3 1.0 11 1.0
 3 4 1.0 9 2.0
 4 5 2.0 8 1.5
 5 6 1.5 7 1.0
 6 16 1.0
 7
 8 10 1.0
 9
 10
 11 12 1.0 13 1.0 14 1.0
 12
 13
 14
 15
 16 17 1.0 18 1.0 19 1.0
 17
 18
 19

