%nprocshared=14
%mem=80GB
%chk=SR-11.chk
# ub3lyp/6-311g(d,p) geom=connectivity temperature=823.15

Title Card Required

0 1
 C                  0.91883100    1.23084000   -0.00028400
 C                 -0.48058000    1.18355500   -0.00011000
 C                 -1.10003600   -0.06530900    0.00009200
 C                 -0.32451000   -1.23120900    0.00004600
 C                  1.06089900   -1.16316200   -0.00013700
 C                  1.70584600    0.07999000   -0.00023900
 H                  1.64230400   -2.08195800   -0.00023800
 O                 -1.04528900   -2.40691600    0.00007900
 O                 -2.46562000   -0.14310700    0.00015600
 H                 -0.44424600   -3.15754600   -0.00010300
 C                 -1.32613200    2.43004200   -0.00026500
 H                 -0.70135900    3.32483900   -0.00062300
 H                 -1.97922500    2.46395600    0.87685000
 H                 -1.97958700    2.46349300   -0.87712700
 H                 -2.70349000   -1.07894200    0.00016500
 H                  1.40248200    2.20270300   -0.00050900
 C                  3.21446900    0.15738500    0.00047600
 H                  3.64062000   -0.32483100    0.88644600
 H                  3.64226300   -0.33908600   -0.87671500
 H                  3.55479500    1.19476500   -0.00749800

 1 2 1.5 6 1.5 16 1.0
 2 3 1.5 11 1.0
 3 4 1.5 9 1.0
 4 5 1.5 8 1.0
 5 6 1.5 7 1.0
 6 17 1.0
 7
 8 10 1.0
 9 15 1.0
 10
 11 12 1.0 13 1.0 14 1.0
 12
 13
 14
 15
 16
 17 18 1.0 19 1.0 20 1.0
 18
 19
 20

