%nprocs=   4
#P B3LYP/6-31G* SCF=conver=7 out=wfn
 
Generated by Multiwfn (http://sobereva.com/multiwfn)
 
  1  1
C     -0.32793069    1.76212803    0.00000107
C     -1.43642881    0.94810119    0.00001807
C     -1.28762902   -0.49541483   -0.00000093
C      0.06627991   -1.01990302   -0.00003493
C      1.16901602   -0.19655019   -0.00002393
C      0.96211623    1.20559484   -0.00002093
H     -0.44032954    2.84078804    0.00001007
H     -2.44586875    1.34147833    0.00006307
H      1.82416032    1.86489272   -0.00005193
O     -2.28171513   -1.25527769    0.00000807
H      0.16358075   -2.10002704   -0.00005893
C      2.57478195   -0.74595539    0.00002807
H      3.12887200   -0.40796647   -0.88100393
H      3.12871199   -0.40814047    0.88123707
H      2.57336079   -1.83680739   -0.00005893
 
N-1.wfn
 
 
