%nprocshared=14
%mem=58339MB
%chk=6.chk
# ub3lyp/6-311g(d,p) geom=connectivity temperature=823.15

Title Card Required

0 2
 C                  0.32793100    1.76212800   -0.00000100
 C                  1.43642900    0.94810100   -0.00001800
 C                  1.28762900   -0.49541500    0.00000100
 C                 -0.06628000   -1.01990300    0.00003500
 C                 -1.16901600   -0.19655000    0.00002400
 C                 -0.96211600    1.20559500    0.00002100
 H                  0.44033000    2.84078800   -0.00001000
 H                  2.44586900    1.34147800   -0.00006300
 H                 -1.82416000    1.86489300    0.00005200
 O                  2.28171500   -1.25527800   -0.00000800
 H                 -0.16358100   -2.10002700    0.00005900
 C                 -2.57478200   -0.74595500   -0.00002800
 H                 -3.12887200   -0.40796600    0.88100400
 H                 -3.12871200   -0.40814000   -0.88123700
 H                 -2.57336100   -1.83680700    0.00005900

 1 2 2.0 6 1.5 7 1.0
 2 3 1.0 8 1.0
 3 4 1.0 10 2.0
 4 5 2.0 11 1.0
 5 6 1.5 12 1.0
 6 9 1.0
 7
 8
 9
 10
 11
 12 13 1.0 14 1.0 15 1.0
 13
 14
 15

