%nprocs=   4
#P B3LYP/6-31G* SCF=conver=7 out=wfn
 
Generated by Multiwfn (http://sobereva.com/multiwfn)
 
 -1  2
C     -1.93336900   -0.24666500    0.00004100
C     -1.28265800    0.99589700   -0.00000500
C      0.10036900    1.07763200   -0.00003400
C      0.87105100   -0.10156800   -0.00001900
C      0.24096000   -1.33658800    0.00002500
C     -1.15782900   -1.40247900    0.00005400
H     -1.84747700    1.92179800   -0.00001800
H      0.81966400   -2.25114300    0.00003500
O      2.22879900    0.12376100   -0.00005400
C      3.09692300   -1.00008600   -0.00001700
H      4.10984000   -0.60052100   -0.00003700
H      2.94915600   -1.61568200    0.89402900
H      2.94914600   -1.61574900   -0.89401500
O      0.71496200    2.29261500   -0.00007900
H      1.66726200    2.12776000   -0.00009100
H     -1.63856600   -2.37453700    0.00008800
C     -3.44227300   -0.31088800    0.00008400
H     -3.86204600    0.18501600    0.88118500
H     -3.86210200    0.18514400   -0.88091700
H     -3.79402000   -1.34463000    0.00002100
 
N+1.wfn
 
 
