%nprocshared=14
%mem=80GB
%chk=1.chk
# ub3lyp/6-311g(d,p) geom=connectivity temperature=823.15

Title Card Required

0 1
 C                 -1.93336900   -0.24666500    0.00004100
 C                 -1.28265800    0.99589700   -0.00000500
 C                  0.10036900    1.07763200   -0.00003400
 C                  0.87105100   -0.10156800   -0.00001900
 C                  0.24096000   -1.33658800    0.00002500
 C                 -1.15782900   -1.40247900    0.00005400
 H                 -1.84747700    1.92179800   -0.00001800
 H                  0.81966400   -2.25114300    0.00003500
 O                  2.22879900    0.12376100   -0.00005400
 C                  3.09692300   -1.00008600   -0.00001700
 H                  4.10984000   -0.60052100   -0.00003700
 H                  2.94915600   -1.61568200    0.89402900
 H                  2.94914600   -1.61574900   -0.89401500
 O                  0.71496200    2.29261500   -0.00007900
 H                  1.66726200    2.12776000   -0.00009100
 H                 -1.63856600   -2.37453700    0.00008800
 C                 -3.44227300   -0.31088800    0.00008400
 H                 -3.86204600    0.18501600    0.88118500
 H                 -3.86210200    0.18514400   -0.88091700
 H                 -3.79402000   -1.34463000    0.00002100

 1 2 1.5 6 1.5 17 1.0
 2 3 2.0 7 1.0
 3 4 1.5 14 1.0
 4 5 1.5 9 1.0
 5 6 1.5 8 1.0
 6 16 1.0
 7
 8
 9 10 1.0
 10 11 1.0 12 1.0 13 1.0
 11
 12
 13
 14 15 1.0
 15
 16
 17 18 1.0 19 1.0 20 1.0
 18
 19
 20

