%nprocshared=14
%mem=58371MB
%chk=4.chk
# ub3lyp/6-311g(d,p) geom=connectivity temperature=823.15

Title Card Required

0 2
 C                 -2.30269200   -0.78310600   -0.00003200
 C                 -1.90972800    0.56612200   -0.00002900
 C                 -0.56356800    0.90566900   -0.00001400
 C                  0.42348100   -0.10244800   -0.00000200
 C                  0.05425400   -1.45014800   -0.00000500
 C                 -1.29924700   -1.71516200   -0.00002000
 H                 -3.35219600   -1.05206900   -0.00004300
 H                 -2.64377400    1.36379600   -0.00003800
 O                  1.70793300    0.38119900    0.00000800
 C                  2.78185900   -0.55087000    0.00007400
 H                  2.75724000   -1.18189500    0.89470600
 H                  2.75732100   -1.18192900   -0.89453600
 O                 -0.19354700    2.21755700   -0.00001100
 H                  0.77232500    2.24174100    0.00000200
 H                  3.69503200    0.04161900    0.00010300
 H                  0.79281300   -2.24166100    0.00000200

 1 2 1.5 6 2.0 7 1.0
 2 3 1.5 8 1.0
 3 4 1.5 13 1.0
 4 5 1.5 9 1.0
 5 6 2.0 16 1.0
 6
 7
 8
 9 10 1.0
 10 11 1.0 12 1.0 15 1.0
 11
 12
 13 14 1.0
 14
 15
 16

