%nprocs=   4
#P B3LYP/6-31G* SCF=conver=7 out=wfn
 
Generated by Multiwfn (http://sobereva.com/multiwfn)
 
  1  1
C     -2.30269200   -0.78310600   -0.00003200
C     -1.90972800    0.56612200   -0.00002900
C     -0.56356800    0.90566900   -0.00001400
C      0.42348100   -0.10244800   -0.00000200
C      0.05425400   -1.45014800   -0.00000500
C     -1.29924700   -1.71516200   -0.00002000
H     -3.35219600   -1.05206900   -0.00004300
H     -2.64377400    1.36379600   -0.00003800
O      1.70793300    0.38119900    0.00000800
C      2.78185900   -0.55087000    0.00007400
H      2.75724000   -1.18189500    0.89470600
H      2.75732100   -1.18192900   -0.89453600
O     -0.19354700    2.21755700   -0.00001100
H      0.77232500    2.24174100    0.00000200
H      3.69503200    0.04161900    0.00010300
H      0.79281300   -2.24166100    0.00000200
 
N-1.wfn
 
 
