%nprocs=   4
#P B3LYP/6-31G* SCF=conver=7 out=wfn
 
Generated by Multiwfn (http://sobereva.com/multiwfn)
 
 -1  2
C     -0.92719800    0.27063300    0.02994400
C      0.41650200    0.59659100    0.13306300
C      1.38913500   -0.41570800    0.15325700
C      0.98482900   -1.74394500    0.06165700
C     -0.36833300   -2.07625400   -0.03634100
C     -1.32977800   -1.07770000   -0.05184000
H      0.74019800    1.62782900    0.18528300
H      1.72704600   -2.53531600    0.06444300
H     -0.69259100   -3.10727900   -0.11036100
O     -2.64988400   -1.39187900   -0.15426900
H     -3.14087700   -0.55932300   -0.15035600
O     -1.97384600    1.15989300   -0.00511800
C     -1.68345100    2.54849100    0.09283400
H     -1.05996800    2.88260800   -0.74303000
H     -2.64367500    3.06023900    0.05580100
H     -1.18116500    2.78180300    1.03742400
C      2.84844100   -0.04490900    0.30762200
H      3.07828300    0.18119700    1.35333600
H      3.47619300   -0.89751200    0.01546100
O      3.21448300    1.13581700   -0.40538400
H      2.98965400    0.99191100   -1.33100600
 
N+1.wfn
 
 
