%nprocs=   4
#P B3LYP/6-31G* SCF=conver=7 out=wfn
 
Generated by Multiwfn (http://sobereva.com/multiwfn)
 
  0  2
C     -1.51954800    0.05586900    0.00000300
C     -0.55173100    1.06528800   -0.00003400
C      0.80375500    0.76568500   -0.00003700
C      1.27321600   -0.62592100    0.00000400
C      0.22826500   -1.63103400    0.00002600
C     -1.09900900   -1.30150800    0.00002600
H     -0.86690300    2.10620400   -0.00006300
H      0.56237700   -2.66196600    0.00003700
O      2.48446500   -0.90684300   -0.00001100
H     -1.85297800   -2.08206400    0.00004200
O      1.76843200    1.70229900   -0.00007400
C     -2.98625500    0.38817000    0.00007700
H     -3.48315600   -0.03534000   -0.87910300
H     -3.48281000   -0.03428800    0.87996700
H     -3.15810700    1.46558100   -0.00051800
H      1.36623800    2.57892100   -0.00007300
 
N.wfn
 
 
