%nprocshared=14
%mem=80GB
%chk=15.chk
# ub3lyp/6-311g(d,p) geom=connectivity temperature=823.15

Title Card Required

0 2
 C                  1.68302900    1.12889100    0.13657600
 C                  0.42164600    1.72121500    0.08982000
 C                 -0.72675000    0.95152600   -0.07698100
 C                 -0.58630500   -0.44327900   -0.18257200
 C                  0.67477800   -1.02134300   -0.13781100
 C                  1.83315500   -0.25194000    0.01822800
 H                  2.55744200    1.75802900    0.26248000
 H                  0.73180100   -2.09999400   -0.23544700
 O                 -1.66700200   -1.27130800   -0.40607300
 O                 -1.97952800    1.48657700   -0.15770200
 H                  0.32630100    2.80047300    0.17254700
 C                 -2.69499600   -1.25774300    0.49789200
 H                 -2.48972400   -0.91790000    1.50482500
 H                 -3.47049500   -1.97037500    0.26237600
 H                 -1.91256600    2.44472300   -0.09159100
 C                  3.19232200   -0.90854400    0.05925400
 H                  3.26123900   -1.63420800    0.87558900
 H                  3.40381000   -1.44581000   -0.87056700
 H                  3.98316000   -0.16979000    0.20354400

 1 2 1.5 6 1.5 7 1.0
 2 3 1.5 11 1.0
 3 4 1.5 10 1.0
 4 5 1.5 9 1.0
 5 6 1.5 8 1.0
 6 16 1.0
 7
 8
 9 12 1.0
 10 15 1.0
 11
 12 13 1.0 14 1.0
 13
 14
 15
 16 17 1.0 18 1.0 19 1.0
 17
 18
 19

