%nprocs=   4
#P B3LYP/6-31G* SCF=conver=7 out=wfn
 
Generated by Multiwfn (http://sobereva.com/multiwfn)
 
  0  2
C      1.68302900    1.12889100    0.13657600
C      0.42164600    1.72121500    0.08982000
C     -0.72675000    0.95152600   -0.07698100
C     -0.58630500   -0.44327900   -0.18257200
C      0.67477800   -1.02134300   -0.13781100
C      1.83315500   -0.25194000    0.01822800
H      2.55744200    1.75802900    0.26248000
H      0.73180100   -2.09999400   -0.23544700
O     -1.66700200   -1.27130800   -0.40607300
O     -1.97952800    1.48657700   -0.15770200
H      0.32630100    2.80047300    0.17254700
C     -2.69499600   -1.25774300    0.49789200
H     -2.48972400   -0.91790000    1.50482500
H     -3.47049500   -1.97037500    0.26237600
H     -1.91256600    2.44472300   -0.09159100
C      3.19232200   -0.90854400    0.05925400
H      3.26123900   -1.63420800    0.87558900
H      3.40381000   -1.44581000   -0.87056700
H      3.98316000   -0.16979000    0.20354400
 
N.wfn
 
 
