%nprocs=   4
#P B3LYP/6-31G* SCF=conver=7 out=wfn
 
Generated by Multiwfn (http://sobereva.com/multiwfn)
 
 -1  1
C     -1.32321000   -0.21612400    0.03218200
C     -0.16978500   -0.71694900    0.51684800
C      2.19085500    0.05888000   -0.18016400
C      0.87035900    0.37074900    0.55501300
C      0.14348100    1.57175900   -0.00144900
C     -1.11838300    1.21301800   -0.28426400
H      0.02443100   -1.73580900    0.82039900
O      2.63848200   -0.99590400   -0.45276900
H      0.60313400    2.54089500   -0.13134600
H     -1.88823200    1.85995500   -0.68689800
H      1.20480200    0.57487700    1.58453000
C     -2.61959900   -0.93486000   -0.17952400
H     -3.42295900   -0.47981900    0.40964400
H     -2.92757200   -0.88567200   -1.22954700
H     -2.54376500   -1.98603400    0.10351100
 
N+1.wfn
 
 
