%nprocshared=14
%mem=58371MB
%chk=4.chk
# rb3lyp/6-311g(d,p) geom=connectivity temperature=823.15

Title Card Required

0 1
 C                 -2.29918100   -0.58848600   -0.00001900
 C                 -1.83798800    0.72960700   -0.00001500
 C                 -0.47487100    0.98913100   -0.00001200
 C                  0.43865100   -0.08285400   -0.00001300
 C                 -0.02085200   -1.39411500   -0.00001800
 C                 -1.39743200   -1.64505000   -0.00002000
 H                 -3.36549700   -0.78115500   -0.00002100
 H                 -2.52191000    1.56978500   -0.00001300
 H                  0.67688000   -2.22130900   -0.00002100
 O                  1.75452000    0.31561600   -0.00001700
 C                  2.76398700   -0.68427500    0.00008700
 H                  3.71457200   -0.15342200    0.00012900
 H                  2.69887900   -1.31341700    0.89430000
 H                  2.69900000   -1.31348400   -0.89408700
 H                 -1.75145600   -2.66903300   -0.00002300
 O                 -0.02067100    2.27267000   -0.00000800
 H                  0.94485600    2.23199000   -0.00000100

 1 2 1.5 6 1.5 7 1.0
 2 3 1.5 8 1.0
 3 4 1.5 16 1.0
 4 5 1.5 10 1.0
 5 6 1.5 9 1.0
 6 15 1.0
 7
 8
 9
 10 11 1.0
 11 12 1.0 13 1.0 14 1.0
 12
 13
 14
 15
 16 17 1.0
 17

