%nprocs=   4
#P B3LYP/6-31G* SCF=conver=7 out=wfn
 
Generated by Multiwfn (http://sobereva.com/multiwfn)
 
  1  2
C     -2.29918100   -0.58848600   -0.00001900
C     -1.83798800    0.72960700   -0.00001500
C     -0.47487100    0.98913100   -0.00001200
C      0.43865100   -0.08285400   -0.00001300
C     -0.02085200   -1.39411500   -0.00001800
C     -1.39743200   -1.64505000   -0.00002000
H     -3.36549700   -0.78115500   -0.00002100
H     -2.52191000    1.56978500   -0.00001300
H      0.67688000   -2.22130900   -0.00002100
O      1.75452000    0.31561600   -0.00001700
C      2.76398700   -0.68427500    0.00008700
H      3.71457200   -0.15342200    0.00012900
H      2.69887900   -1.31341700    0.89430000
H      2.69900000   -1.31348400   -0.89408700
H     -1.75145600   -2.66903300   -0.00002300
O     -0.02067100    2.27267000   -0.00000800
H      0.94485600    2.23199000   -0.00000100
 
N-1.wfn
 
 
