%nprocshared=14
%nprocs=   4
#p b3lyp/6-31g(d) out=wfn scf=conver=7

Generated by Multiwfn (http://sobereva.com/multiwfn)

1 2
 C                  0.74116800   -0.78568400   -0.00003900
 C                 -0.55722700   -1.15720000   -0.00044000
 C                 -1.60703200   -0.15449500   -0.00010800
 C                 -1.21861400    1.25451200    0.00013100
 C                  0.07253200    1.63907200    0.00007100
 C                  1.14245000    0.64566200    0.00007200
 H                 -0.82484200   -2.20738600   -0.00066300
 H                 -2.01406300    1.99243200    0.00027600
 H                  0.37126100    2.68045900    0.00007400
 O                  2.34341100    0.91317300   -0.00025800
 H                  2.56717800   -1.08532500    0.00008300
 O                  1.76955300   -1.64897000    0.00041200
 C                 -2.91844000   -0.48405900    0.00000500
 H                 -3.24304700   -1.51789600    0.00017600
 H                 -3.68921900    0.27723800    0.00066900

N-1.wfn




