%nprocshared=14
%mem=58371MB
%chk=F:\2025-12\sjk\SJY\PR8\PR8.chk
# rb3lyp/6-311g(d,p) geom=connectivity temperature=823.15

Title Card Required

0 1
 C                  0.74116800   -0.78568400   -0.00003900
 C                 -0.55722700   -1.15720000   -0.00044000
 C                 -1.60703200   -0.15449500   -0.00010800
 C                 -1.21861400    1.25451200    0.00013100
 C                  0.07253200    1.63907200    0.00007100
 C                  1.14245000    0.64566200    0.00007200
 H                 -0.82484200   -2.20738600   -0.00066300
 H                 -2.01406300    1.99243200    0.00027600
 H                  0.37126100    2.68045900    0.00007400
 O                  2.34341100    0.91317300   -0.00025800
 H                  2.56717800   -1.08532500    0.00008300
 O                  1.76955300   -1.64897000    0.00041200
 C                 -2.91844000   -0.48405900    0.00000500
 H                 -3.24304700   -1.51789600    0.00017600
 H                 -3.68921900    0.27723800    0.00066900

 1 2 2.0 6 1.0 12 1.5
 2 3 1.0 7 1.0
 3 4 1.0 13 2.0
 4 5 2.0 8 1.0
 5 6 1.0 9 1.0
 6 10 2.0
 7
 8
 9
 10
 11 12 1.0
 12
 13 14 1.0 15 1.0
 14
 15

