%nprocs=   4
#P B3LYP/6-31G* SCF=conver=7 out=wfn
 
Generated by Multiwfn (http://sobereva.com/multiwfn)
 
  1  1
C     -1.89440600   -0.03524400    0.07525300
C     -0.92865000   -1.07540700    0.01570300
C      0.39032700   -0.83212000   -0.22683400
C      0.91390500    0.56496200   -0.48408700
C     -0.14940700    1.61622900   -0.34431200
C     -1.45439000    1.29924700   -0.10097200
H      0.15000200    2.64949500   -0.48446900
O      3.04644600    0.05455400    0.54071700
O      1.27741100   -1.85161900   -0.30800600
H     -1.22646200   -2.10767000    0.16825700
C      2.14891000    0.85031300    0.38523100
H      2.18315100    1.84475500    0.87303300
H      2.16878300   -1.49429000   -0.14836300
H      1.33355800    0.57319100   -1.51422300
H     -2.18471700    2.09997700   -0.03405200
C     -3.33595400   -0.35998300    0.34865100
H     -3.74052400   -1.05004400   -0.40092100
H     -3.46087000   -0.84578300    1.32387000
H     -3.95578300    0.53891000    0.34338900
 
N-1.wfn
 
 
