%nprocshared=14
%mem=80GB
%chk=SR-14.chk
# ub3lyp/6-311g(d,p) geom=connectivity temperature=823.15

Title Card Required

0 2
 C                  1.83930600   -0.03110100    0.01769900
 C                  0.96606700    1.08439800    0.04004200
 C                 -0.39062400    0.92209400    0.00842300
 C                 -1.00279900   -0.42048400    0.04339500
 C                 -0.07405300   -1.53932300   -0.12050400
 C                  1.27769900   -1.32721300   -0.09856900
 H                 -0.49278900   -2.53400500   -0.21485000
 O                 -2.30988500   -0.45934700   -0.69484900
 O                 -1.23610600    1.98111100   -0.05952000
 H                  1.36262300    2.09386700    0.03357300
 C                 -2.31692400   -0.61042600    0.72133200
 H                 -2.56891600   -1.60456400    1.08490700
 H                 -2.05752800    1.64687000   -0.45456500
 H                 -2.74689200    0.21408900    1.28735700
 H                  1.94624600   -2.17837600   -0.17880400
 C                  3.32763200    0.17166300    0.08233000
 H                  3.65437800    0.96304500   -0.59986600
 H                  3.64595700    0.46892600    1.08929400
 H                  3.86703200   -0.74160900   -0.17698600

 1 2 1.5 6 1.5 16 1.0
 2 3 2.0 10 1.0
 3 4 1.0 9 1.0
 4 5 1.0 8 1.0 11 1.0
 5 6 2.0 7 1.0
 6 15 1.0
 7
 8 11 1.0
 9 13 1.0
 10
 11 12 1.0 14 1.0
 12
 13
 14
 15
 16 17 1.0 18 1.0 19 1.0
 17
 18
 19

