%nprocs=   4
#P B3LYP/6-31G* SCF=conver=7 out=wfn
 
Generated by Multiwfn (http://sobereva.com/multiwfn)
 
  0  2
C     -1.95355900   -0.01667700   -0.00000700
C     -1.02226700   -1.05027100    0.00001800
C      0.35173600   -0.78939000    0.00009500
C      0.81460700    0.54570300    0.00010300
C     -0.13141400    1.57620600    0.00010700
C     -1.49144800    1.30995200    0.00005300
H      0.21294500    2.60689700    0.00010700
O      3.18987400   -0.13260200   -0.00074200
O      1.19730700   -1.83976200    0.00029200
H     -1.33741000   -2.08795700    0.00002200
C      2.28461600    0.87424100    0.00010300
H      2.52194200    1.54511000   -0.85775200
H      2.11314900   -1.48478100    0.00054800
H      2.52219300    1.54378100    0.85895900
H     -2.20351300    2.12739700    0.00003300
C     -3.43138100   -0.32360800   -0.00011500
H     -3.71198900   -0.90885900   -0.88100800
H     -3.71193500   -0.90980400    0.88016200
H     -4.02817200    0.59019600    0.00038300
 
N.wfn
 
 
