%nprocs=   4
#P B3LYP/6-31G* SCF=conver=7 out=wfn
 
Generated by Multiwfn (http://sobereva.com/multiwfn)
 
 -1  1
C      1.12396900    1.15417300   -0.00047400
C     -0.09903900    1.84228800    0.00009300
C     -1.24118300    1.08842100    0.00061300
C     -1.28420900   -0.29166400    0.00043800
C     -0.05355000   -0.95596000   -0.00054200
C      1.15102300   -0.24405000   -0.00086600
H     -0.12665000    2.92655400   -0.00005600
H     -0.06074600   -2.04174200   -0.00123700
O     -2.43371500   -1.02629200   -0.00014400
H     -3.18098000   -0.41797100    0.00051900
H      2.05220100    1.71556300   -0.00094200
C      2.46411100   -0.99260400    0.00056200
H      2.56231200   -1.61746800    0.89360500
H      2.54473700   -1.65258100   -0.86844100
H      3.31211800   -0.30564700   -0.02124300
 
N+1.wfn
 
 
