%nprocshared=14
%mem=58339MB
%chk=SR-8.chk
# ub3lyp/6-311g(d,p) geom=connectivity temperature=823.15

Title Card Required

0 2
 C                  1.12396900    1.15417300   -0.00047400
 C                 -0.09903900    1.84228800    0.00009300
 C                 -1.24118300    1.08842100    0.00061300
 C                 -1.28420900   -0.29166400    0.00043800
 C                 -0.05355000   -0.95596000   -0.00054200
 C                  1.15102300   -0.24405000   -0.00086600
 H                 -0.12665000    2.92655400   -0.00005600
 H                 -0.06074600   -2.04174200   -0.00123700
 O                 -2.43371500   -1.02629200   -0.00014400
 H                 -3.18098000   -0.41797100    0.00051900
 H                  2.05220100    1.71556300   -0.00094200
 C                  2.46411100   -0.99260400    0.00056200
 H                  2.56231200   -1.61746800    0.89360500
 H                  2.54473700   -1.65258100   -0.86844100
 H                  3.31211800   -0.30564700   -0.02124300

 1 2 1.5 6 1.5 11 1.0
 2 3 2.0 7 1.0
 3 4 2.0
 4 5 1.5 9 1.0
 5 6 1.5 8 1.0
 6 12 1.0
 7
 8
 9 10 1.0
 10
 11
 12 13 1.0 14 1.0 15 1.0
 13
 14
 15

