%nprocs=   4
#P B3LYP/6-31G* SCF=conver=7 out=wfn
 
Generated by Multiwfn (http://sobereva.com/multiwfn)
 
 -1  2
C     -1.20486600   -0.21536100   -0.01214100
C     -0.03921200   -0.98105100   -0.00974500
C      1.21511500   -0.36942200    0.00070900
C      1.31615000    1.02251700    0.00753200
C      0.15329800    1.78884600    0.00250700
C     -1.09786300    1.18104300   -0.00848700
H     -1.99534200    1.78983100   -0.01624400
O      2.31041300   -1.18848100    0.00126800
H      3.10710100   -0.64828100    0.00360100
H      2.29169700    1.50003900    0.01256300
C     -2.55823100   -0.88603000    0.00960900
H     -2.52870400   -1.86065400   -0.48273600
H     -2.89688300   -1.04816900    1.03876000
H     -3.31303400   -0.27440800   -0.49047100
H     -0.08349500   -2.06439300   -0.01860500
H      0.22899900    2.87063000    0.00307900
 
N+1.wfn
 
 
