%nprocs=   4
#P B3LYP/6-31G* SCF=conver=7 out=wfn
 
Generated by Multiwfn (http://sobereva.com/multiwfn)
 
 -1  2
C      1.05215700    1.14074100   -0.26031600
C     -0.43803000    1.27992900   -0.38043700
C     -1.21643400   -0.00871700   -0.18056300
C     -0.46537100   -1.25915500    0.03118800
C      0.88514800   -1.25893900    0.09894100
C      1.66761300   -0.03547100   -0.04395600
H      1.40040900   -2.19794100    0.27355400
O     -1.22389000   -2.36385500    0.17636800
O     -2.44170200   -0.05701600   -0.19744900
H     -2.14271000   -2.04821800    0.09396500
H     -0.66023700    1.56571300   -1.42157700
C     -1.00747500    2.39770900    0.52119300
H     -0.56295500    3.36094800    0.26179300
H     -2.08883300    2.45941100    0.39577200
H     -0.78814300    2.19157700    1.57145900
H      1.63445900    2.05082000   -0.36834700
C      3.16602700   -0.15894200    0.06218800
H      3.45756600   -0.57737600    1.03133600
H      3.55922700   -0.83119900   -0.70786200
H      3.65413800    0.81030100   -0.05087700
 
N+1.wfn
 
 
