%nprocs=   4
#P B3LYP/6-31G* SCF=conver=7 out=wfn
 
Generated by Multiwfn (http://sobereva.com/multiwfn)
 
 -1  1
C      1.91146200   -0.05497400    0.05274200
C      1.02674700    1.02830700    0.00591000
C     -0.34912900    0.84813800   -0.11945100
C     -0.86273800   -0.45850000   -0.18770000
C      0.00789900   -1.53740300   -0.14643600
C      1.38365800   -1.34290400   -0.03172800
H     -0.41417900   -2.53283200   -0.21621300
O     -2.20904900   -0.70246200   -0.37165900
O     -1.22690100    1.88829300   -0.19409100
H      1.41609300    2.04280900    0.05671500
C     -3.07770100   -0.26431300    0.59163400
H     -2.69628200   -0.10667800    1.59265800
H     -4.10269600   -0.53442200    0.38803100
H     -0.73508500    2.71484000   -0.14973300
H      2.04502000   -2.20137300   -0.00349800
C      3.39598800    0.18096300    0.19462500
H      3.76681200    0.86586700   -0.57381800
H      3.63706900    0.62238400    1.16717100
H      3.95372600   -0.75312800    0.10710800
 
N+1.wfn
 
 
