%nprocshared=14
%mem=80GB
%chk=SR-13.chk
# ub3lyp/6-311g(d,p) geom=connectivity temperature=823.15

Title Card Required

0 2
 C                  1.91146200   -0.05497400    0.05274200
 C                  1.02674700    1.02830700    0.00591000
 C                 -0.34912900    0.84813800   -0.11945100
 C                 -0.86273800   -0.45850000   -0.18770000
 C                  0.00789900   -1.53740300   -0.14643600
 C                  1.38365800   -1.34290400   -0.03172800
 H                 -0.41417900   -2.53283200   -0.21621300
 O                 -2.20904900   -0.70246200   -0.37165900
 O                 -1.22690100    1.88829300   -0.19409100
 H                  1.41609300    2.04280900    0.05671500
 C                 -3.07770100   -0.26431300    0.59163400
 H                 -2.69628200   -0.10667800    1.59265800
 H                 -4.10269600   -0.53442200    0.38803100
 H                 -0.73508500    2.71484000   -0.14973300
 H                  2.04502000   -2.20137300   -0.00349800
 C                  3.39598800    0.18096300    0.19462500
 H                  3.76681200    0.86586700   -0.57381800
 H                  3.63706900    0.62238400    1.16717100
 H                  3.95372600   -0.75312800    0.10710800

 1 2 1.5 6 1.5 16 1.0
 2 3 1.5 10 1.0
 3 4 1.5 9 1.0
 4 5 1.5 8 1.0
 5 6 1.5 7 1.0
 6 15 1.0
 7
 8 11 1.0
 9 14 1.0
 10
 11 12 1.0 13 1.0
 12
 13
 14
 15
 16 17 1.0 18 1.0 19 1.0
 17
 18
 19

