%nprocs=   4
#P B3LYP/6-31G* SCF=conver=7 out=wfn
 
Generated by Multiwfn (http://sobereva.com/multiwfn)
 
  1  2
C      1.26713600   -0.57842700    0.00071600
C      1.16130100    0.81244200    0.00629400
C     -0.09378500    1.41795800    0.00092600
C     -1.25210000    0.63973700   -0.00878500
C     -1.16385600   -0.75387200   -0.01148000
C      0.10005700   -1.34885100   -0.00912500
H      0.17742600   -2.43135800   -0.01651800
O     -0.13097900    2.78567400    0.00204400
H     -1.04910500    3.07471600   -0.00048700
H     -2.22647100    1.12247000   -0.01629100
C      2.62849600   -1.23306800    0.00162000
H      3.21183900   -0.93315800   -0.87430500
H      3.20384800   -0.94625300    0.88719100
H      2.54652600   -2.32152500   -0.00671500
H      2.04290900    1.44357900    0.01039000
C     -2.41709300   -1.59649800    0.00965100
H     -2.81894900   -1.67713400    1.02560900
H     -3.20111700   -1.16369800   -0.61723900
H     -2.22001600   -2.60956500   -0.34688800
 
N-1.wfn
 
 
