%nprocshared=14
%mem=58371MB
%chk=3.chk
# ub3lyp/6-311g(d,p) geom=connectivity temperature=823.15

Title Card Required

0 2
 C                 -1.94843300    0.87452700    0.00000900
 C                 -0.87485500    1.74716400    0.00001000
 C                  0.43042200    1.25885800   -0.00000900
 C                  0.64948300   -0.14048900   -0.00003200
 C                 -0.41119700   -1.01828300   -0.00003600
 C                 -1.75957500   -0.53723600   -0.00001400
 H                 -2.95888600    1.26673800    0.00002400
 H                 -1.02071200    2.82081700    0.00002900
 H                 -0.24327700   -2.08745600   -0.00006000
 O                  1.48475900    2.11468700   -0.00000500
 H                  2.28812800    1.57640500   -0.00000800
 O                  1.98158100   -0.47582200   -0.00006400
 C                  2.33243100   -1.85347100    0.00011100
 H                  3.42057900   -1.88746100    0.00018600
 H                  1.95151400   -2.35782000    0.89433100
 H                  1.95163900   -2.35801700   -0.89405200
 C                 -2.84487900   -1.42086200   -0.00001500
 H                 -3.86244900   -1.05186300   -0.00000200
 H                 -2.69763400   -2.49350300   -0.00003300

 1 2 2.0 6 1.5 7 1.0
 2 3 1.5 8 1.0
 3 4 1.5 10 1.0
 4 5 2.0 12 1.0
 5 6 1.5 9 1.0
 6 17 1.5
 7
 8
 9
 10 11 1.0
 11
 12 13 1.0
 13 14 1.0 15 1.0 16 1.0
 14
 15
 16
 17 18 1.0 19 1.0
 18
 19

