%nprocs=   4
#P B3LYP/6-31G* SCF=conver=7 out=wfn
 
Generated by Multiwfn (http://sobereva.com/multiwfn)
 
 -1  2
C      1.89986300   -0.01933700   -0.00009400
C      0.96939000   -1.05574300   -0.00009100
C     -0.40243700   -0.79139600   -0.00001700
C     -0.85242900    0.55527400    0.00001900
C      0.09746200    1.58986200    0.00000200
C      1.45142800    1.31498000   -0.00006000
H     -0.25230400    2.61778000    0.00000200
O     -3.16131700    0.00413600    0.00000400
O     -1.25956900   -1.82043000    0.00001700
H      1.28774200   -2.09218400   -0.00014900
C     -2.27305000    0.85199100    0.00002900
H     -2.54169400    1.92563400    0.00012000
H     -2.16899500   -1.44412000    0.00010200
H      2.17321400    2.12327400   -0.00009900
C      3.37525800   -0.33392400    0.00008600
H      3.64929100   -0.92040900    0.88202700
H      3.64860800   -0.92513200   -0.87888200
H      3.97831600    0.57526700   -0.00252800
 
N+1.wfn
 
 
