%nprocshared=14
%mem=80GB
%chk=SR-16.chk
# ub3lyp/6-311g(d,p) geom=connectivity temperature=823.15

Title Card Required

0 1
 C                  1.89986300   -0.01933700   -0.00009400
 C                  0.96939000   -1.05574300   -0.00009100
 C                 -0.40243700   -0.79139600   -0.00001700
 C                 -0.85242900    0.55527400    0.00001900
 C                  0.09746200    1.58986200    0.00000200
 C                  1.45142800    1.31498000   -0.00006000
 H                 -0.25230400    2.61778000    0.00000200
 O                 -3.16131700    0.00413600    0.00000400
 O                 -1.25956900   -1.82043000    0.00001700
 H                  1.28774200   -2.09218400   -0.00014900
 C                 -2.27305000    0.85199100    0.00002900
 H                 -2.54169400    1.92563400    0.00012000
 H                 -2.16899500   -1.44412000    0.00010200
 H                  2.17321400    2.12327400   -0.00009900
 C                  3.37525800   -0.33392400    0.00008600
 H                  3.64929100   -0.92040900    0.88202700
 H                  3.64860800   -0.92513200   -0.87888200
 H                  3.97831600    0.57526700   -0.00252800

 1 2 1.5 6 1.5 15 1.0
 2 3 1.5 10 1.0
 3 4 1.5 9 1.5
 4 5 1.5 11 1.0
 5 6 2.0 7 1.0
 6 14 1.0
 7
 8 11 2.0
 9 13 1.0
 10
 11 12 1.0
 12
 13
 14
 15 16 1.0 17 1.0 18 1.0
 16
 17
 18

